(set-info :source |printed by MathSAT|)
(declare-fun |.x{99}| () Int)
(declare-fun |.y{9}| () Int)
(declare-fun |.y{8}| () Int)
(declare-fun |.y{10}| () Int)
(declare-fun |.x{100}| () (Array Int Int))
(declare-fun |.y{11}| () (Array Int Int))
(declare-fun |.x{103}| () Int)
(declare-fun |.y{12}| () Int)
(declare-fun |.x{104}| () (Array Int Int))
(declare-fun |.y{13}| () (Array Int Int))
(declare-fun |.x{102}| () Int)
(declare-fun |.y{14}| () Int)
(declare-fun |.x{96}| () Int)
(declare-fun |.y{15}| () Int)
(declare-fun |.loc{3}| () Bool)
(declare-fun |.loc{5}| () Bool)
(declare-fun |.loc{4}| () Bool)
(declare-fun |.loc{6}| () Bool)
(declare-fun |.x{37}| () Int)
(declare-fun |.x{105}| () Int)
(declare-fun |.x{101}| () Int)
(define-fun .def_22 () Bool (! |.loc{3}| :next |.loc{5}|))
(define-fun .def_94 () Bool (not .def_22))
(define-fun .def_24 () Bool (! |.loc{4}| :next |.loc{6}|))
(define-fun .def_47 () Bool (not .def_24))
(define-fun .def_162 () Bool (! (and .def_47 .def_94) :init true))
(define-fun .def_12 () (Array Int Int) (! |.x{100}| :next |.y{11}|))
(define-fun .def_131 () Int (select .def_12 |.x{101}|))
(define-fun .def_16 () (Array Int Int) (! |.x{104}| :next |.y{13}|))
(define-fun .def_130 () Int (select .def_16 |.x{105}|))
(define-fun .def_132 () Bool (= .def_130 .def_131))
(define-fun .def_145 () Bool (not .def_132))
(define-fun .def_56 () Int (* (- 1) |.x{105}|))
(define-fun .def_18 () Int (! |.x{102}| :next |.y{14}|))
(define-fun .def_103 () Int (+ .def_18 .def_56))
(define-fun .def_14 () Int (! |.x{103}| :next |.y{12}|))
(define-fun .def_104 () Int (+ .def_14 .def_103))
(define-fun .def_105 () Bool (= .def_104 0))
(define-fun .def_146 () Bool (and .def_105 .def_145))
(define-fun .def_20 () Int (! |.x{96}| :next |.y{15}|))
(define-fun .def_109 () Bool (<= .def_20 .def_18))
(define-fun .def_110 () Bool (not .def_109))
(define-fun .def_147 () Bool (and .def_110 .def_146))
(define-fun .def_148 () Bool (and .def_24 .def_147))
(define-fun .def_149 () Bool (and .def_94 .def_148))
(define-fun .def_8 () Int (! |.x{99}| :next |.y{9}|))
(define-fun .def_51 () Bool (<= .def_8 0))
(define-fun .def_49 () Bool (<= |.x{101}| 0))
(define-fun .def_50 () Bool (not .def_49))
(define-fun .def_52 () Bool (or .def_50 .def_51))
(define-fun .def_150 () Bool (and .def_52 .def_149))
(define-fun .def_54 () Bool (not .def_51))
(define-fun .def_151 () Bool (and .def_54 .def_150))
(define-fun .def_152 () Bool (and |.loc{5}| .def_151))
(define-fun .def_70 () Bool (<= .def_14 0))
(define-fun .def_68 () Bool (<= |.x{105}| 0))
(define-fun .def_69 () Bool (not .def_68))
(define-fun .def_71 () Bool (or .def_69 .def_70))
(define-fun .def_153 () Bool (and .def_71 .def_152))
(define-fun .def_154 () Bool (and .def_71 .def_153))
(define-fun .def_75 () Bool (not .def_70))
(define-fun .def_155 () Bool (and .def_75 .def_154))
(define-fun .def_41 () Int (* (- 1) |.x{101}|))
(define-fun .def_126 () Int (+ .def_18 .def_41))
(define-fun .def_127 () Int (+ .def_8 .def_126))
(define-fun .def_128 () Bool (= .def_127 0))
(define-fun .def_156 () Bool (and .def_128 .def_155))
(define-fun .def_143 () Bool (= .def_18 |.y{15}|))
(define-fun .def_136 () Bool (= |.y{14}| 0))
(define-fun .def_112 () Bool (not |.loc{5}|))
(define-fun .def_134 () Bool (and .def_22 .def_112))
(define-fun .def_135 () Bool (and .def_47 .def_134))
(define-fun .def_137 () Bool (and .def_135 .def_136))
(define-fun .def_10 () Int (! |.y{8}| :next |.y{10}|))
(define-fun .def_36 () Bool (<= .def_18 .def_10))
(define-fun .def_138 () Bool (and .def_36 .def_137))
(define-fun .def_63 () Bool (= .def_8 |.y{9}|))
(define-fun .def_139 () Bool (and .def_63 .def_138))
(define-fun .def_119 () Bool (= .def_12 |.y{11}|))
(define-fun .def_140 () Bool (and .def_119 .def_139))
(define-fun .def_65 () Bool (= .def_14 |.y{12}|))
(define-fun .def_141 () Bool (and .def_65 .def_140))
(define-fun .def_122 () Bool (= .def_16 |.y{13}|))
(define-fun .def_142 () Bool (and .def_122 .def_141))
(define-fun .def_144 () Bool (and .def_142 .def_143))
(define-fun .def_157 () Bool (or .def_144 .def_156))
(define-fun .def_107 () Bool (= .def_20 |.y{15}|))
(define-fun .def_99 () Int (* (- 1) |.y{14}|))
(define-fun .def_100 () Int (+ .def_18 .def_99))
(define-fun .def_101 () Bool (= .def_100 (- 1)))
(define-fun .def_106 () Bool (and .def_101 .def_105))
(define-fun .def_108 () Bool (and .def_106 .def_107))
(define-fun .def_111 () Bool (and .def_108 .def_110))
(define-fun .def_113 () Bool (and .def_111 .def_112))
(define-fun .def_114 () Bool (and .def_24 .def_113))
(define-fun .def_115 () Bool (and .def_94 .def_114))
(define-fun .def_116 () Bool (and .def_52 .def_115))
(define-fun .def_117 () Bool (and .def_54 .def_116))
(define-fun .def_118 () Bool (and .def_63 .def_117))
(define-fun .def_120 () Bool (and .def_118 .def_119))
(define-fun .def_121 () Bool (and .def_65 .def_120))
(define-fun .def_123 () Bool (and .def_121 .def_122))
(define-fun .def_124 () Bool (and .def_71 .def_123))
(define-fun .def_125 () Bool (and .def_75 .def_124))
(define-fun .def_129 () Bool (and .def_125 .def_128))
(define-fun .def_133 () Bool (and .def_129 .def_132))
(define-fun .def_158 () Bool (or .def_133 .def_157))
(define-fun .def_159 () Bool (and |.loc{6}| .def_158))
(define-fun .def_91 () Bool (<= |.y{12}| 0))
(define-fun .def_92 () Bool (not .def_91))
(define-fun .def_88 () Bool (<= |.y{9}| 0))
(define-fun .def_89 () Bool (not .def_88))
(define-fun .def_85 () Bool (<= |.y{14}| 0))
(define-fun .def_86 () Bool (not .def_85))
(define-fun .def_83 () Bool (<= |.y{14}| |.x{101}|))
(define-fun .def_81 () Bool (= |.y{10}| 0))
(define-fun .def_30 () Bool (not |.loc{6}|))
(define-fun .def_82 () Bool (and .def_30 .def_81))
(define-fun .def_84 () Bool (and .def_82 .def_83))
(define-fun .def_87 () Bool (and .def_84 .def_86))
(define-fun .def_90 () Bool (and .def_87 .def_89))
(define-fun .def_93 () Bool (and .def_90 .def_92))
(define-fun .def_95 () Bool (and .def_93 .def_94))
(define-fun .def_96 () Bool (and .def_47 .def_95))
(define-fun .def_97 () Bool (and .def_50 .def_96))
(define-fun .def_98 () Bool (and |.loc{5}| .def_97))
(define-fun .def_160 () Bool (or .def_98 .def_159))
(define-fun .def_77 () Int (* (- 1) |.y{10}|))
(define-fun .def_78 () Int (+ .def_10 .def_77))
(define-fun .def_79 () Bool (= .def_78 (- 1)))
(define-fun .def_73 () Bool (= .def_18 |.y{14}|))
(define-fun .def_59 () Int (+ .def_14 .def_56))
(define-fun .def_60 () Int (+ .def_10 .def_59))
(define-fun .def_61 () Bool (= .def_60 0))
(define-fun .def_42 () Int (+ .def_10 .def_41))
(define-fun .def_43 () Int (+ .def_8 .def_42))
(define-fun .def_44 () Bool (= .def_43 0))
(define-fun .def_37 () Bool (not .def_36))
(define-fun .def_33 () (Array Int Int) (store .def_12 |.x{101}| |.x{37}|))
(define-fun .def_34 () Bool (= |.y{11}| .def_33))
(define-fun .def_28 () (Array Int Int) (store .def_16 |.x{105}| |.x{37}|))
(define-fun .def_29 () Bool (= |.y{13}| .def_28))
(define-fun .def_31 () Bool (and .def_29 .def_30))
(define-fun .def_35 () Bool (and .def_31 .def_34))
(define-fun .def_38 () Bool (and .def_35 .def_37))
(define-fun .def_45 () Bool (and .def_38 .def_44))
(define-fun .def_46 () Bool (and .def_22 .def_45))
(define-fun .def_48 () Bool (and .def_46 .def_47))
(define-fun .def_53 () Bool (and .def_48 .def_52))
(define-fun .def_55 () Bool (and .def_53 .def_54))
(define-fun .def_62 () Bool (and .def_55 .def_61))
(define-fun .def_64 () Bool (and .def_62 .def_63))
(define-fun .def_66 () Bool (and .def_64 .def_65))
(define-fun .def_67 () Bool (and |.loc{5}| .def_66))
(define-fun .def_72 () Bool (and .def_67 .def_71))
(define-fun .def_74 () Bool (and .def_72 .def_73))
(define-fun .def_76 () Bool (and .def_74 .def_75))
(define-fun .def_80 () Bool (and .def_76 .def_79))
(define-fun .def_161 () Bool (! (or .def_80 .def_160) :trans true))
(define-fun .def_163 () Bool (and .def_22 .def_24))
(define-fun .def_164 () Bool (! (not .def_163) :invar-property 0))
(assert true)
